%int: n; % Número de días
%int: m; % Número de clientes
%array[1..n, 1..m] of int: demand; % Demanda diaria por cliente y día
%array[1..3] of int: costs; % Costos de producción (N, H, T)
%array[1..3] of int: capacities; % Capacidad diaria (N, H, T)
%array[1..m] of int: Ps; % Pago individual por cliente por MW
%float: min_demand_percentage = 0.50; % Porcentaje mínimo de demanda a cubrir
%float: hydro_max_percentage = 0.80; % Porcentaje máximo de capacidad para hidroeléctrica
%int: hydro_max_consecutive_days = 1; % Días consecutivos máximos a ese porcentaje


% Número de días
n = 14;  % Dos semanas

% Número de clientes
m = 5; 

% Demanda diaria por cliente y día (suponiendo una semana y 6 clientes)
demand = [| 800,  820, 850, 870, 880
          | 810,  830, 860, 880, 890
          | 790, 810,  840, 860, 870
          | 770,  790, 820, 840, 850
          | 760,  780, 810, 830, 840
          | 750, 770,  800, 820, 830
          | 740,  760, 790, 810, 820
          | 730, 750,  780, 800, 810
          | 720, 740,  770, 790, 800
          | 710, 730,  760, 780, 790
          | 700, 720,  750, 770, 780
          | 690, 710,  740, 760, 770
          | 680, 700,  730, 750, 760
          | 670, 690,  720, 740, 750 |];



% Costos de producción (Nuclear, Hidroeléctrica, Térmica)
costs = [53, 24, 32]; 

% Capacidad diaria (Nuclear, Hidroeléctrica, Térmica)
capacities = [1140, 360, 625];

% Pago individual por cliente por MW (6 clientes)
Ps = [63, 59, 57, 56, 58]; 

% Porcentaje mínimo de demanda a cubrir
min_demand_percentage = 0.50;

% Porcentaje máximo de capacidad para hidroeléctrica
hydro_max_percentage = 0.80;

% Días consecutivos máximos a ese porcentaje
hydro_max_consecutive_days = 1;


